4 
5  09 24 39 56 
6  11 26 41 56 
7  12 27 42 57 
8  12 27 42 57 
9  12 27 42 57 
10  12 27 42 57 
11  12 27 42 57 
12  12 27 42 57 
13  12 27 42 57 
14  17 32 47 
15  02 17 32 47 
16  02 17 32 47 
17  02 17 35 52 
18  07 23 39 53 
19  08 23 38 53 
20  08 23 38 
21  
22 
